%nproc=4
%mem=4000MB
# pbe1pbe/def2tzvp freq

conf-02

-1 1
O                2.760498            0.485166            0.000018
C                1.570753            0.246348            0.000157
O                1.060463           -0.952185           -0.000209
H                0.807892            1.048202            0.000617
O               -1.426957           -1.005062            0.000091
C               -2.097578            0.068338            0.000083
O               -1.698881            1.231888           -0.000191
H               -3.206927           -0.100873            0.000348
H               -0.001000           -0.913890           -0.000082

