%nproc=4
%mem=400MB
# MP2 def2qzvpp 
# opt freq=(anharm,vibrot) scf=verytight

Geometry optimization and frequency analysis for H35Cl

0 1
 Cl	0.0	0.0	0.0
 H	0.0	0.0	1.27

