
%nproc=4
%mem=400MB
# PBEPBE STO-3G
# sp scf=tight 

test calculations for H 

0 2
H 0.0 0.0 0.0 

