%nproc=4
%mem=4GB
# pbe1pbe/def2tzvp sp nosymm

dummy

-1 1
  O    3.093120   -0.366380    0.013383
  C    1.912057   -0.173745   -0.234593
  O    1.094558    0.545785    0.443417
  H    1.460169   -0.663111   -1.123431
  O   -1.095074    0.549983   -0.440475
  C   -1.911732   -0.175633    0.232999
  O   -3.092957   -0.366650   -0.015274
  H   -1.458876   -0.671955    1.116649
  H    0.000281    0.545366    0.001688

