%nproc=4
%mem=4GB
# pbe1pbe/def2tzvp sp nosymm

dummy

-1 1
  O    3.121206   -0.345575   -0.005341
  C    1.933902   -0.181026   -0.214829
  O    1.119524    0.532262    0.474624
  H    1.458089   -0.681835   -1.096385
  O   -1.120040    0.536460   -0.470642
  C   -1.933577   -0.182914    0.213235
  O   -3.121043   -0.345845    0.003450
  H   -1.456796   -0.690679    1.090643
  H   -0.000759    0.529763    0.001688

