%nproc=4
%mem=4GB
# pbe1pbe/def2tzvp sp nosymm

dummy

-1 1
  O    3.102482   -0.359445    0.007141
  C    1.919338   -0.176172   -0.228005
  O    1.102880    0.541278    0.453820
  H    1.459475   -0.669353   -1.114415
  O   -1.103396    0.545476   -0.450530
  C   -1.919013   -0.178060    0.226411
  O   -3.102319   -0.359715   -0.009032
  H   -1.458182   -0.678197    1.107981
  H   -0.000065    0.540165    0.001688

