# HF/6-31g

H atom energy

0 1
H 0.0 0.0 0.0
